Route #1: 45 42 39 36 71 81 0 86 87 97 75 74 0 55 2 7 60 98
Route #2: 23 18 19 49 0 84 85 89 50 94
Route #3: 14 47 16 15 11 0 9 10 13 17 12
Route #4: 69 79 73 78 53 90 0 95 32 26 31 34 93
Route #5: 61 44 40 38 41 0 66 83 56 91 80
Route #6: 99 57 22 20 24 0 82 52 59 58 77 25 21 48
Route #7: 92 63 33 28 27 29 30 62 67 0 88 6 8 46 4 0 68 70 1 3 5 100
Route #8: 65 64 76 51 0 43 35 37 72 54 96
Cost: 18134
Optimal: True
